\ Model LinearProblem
\ LP format - for model browsing. Use MPS format to capture full model detail.
Maximize
  2.5 C0 + 2.5 C1 + 2.5 C2 + 2 C3 + 2 C4 + 2 C5 + 2 C6 + 2 C7 + 2 C8 + 2 C9
   + 2 C10 + 3.5 C11 + 2 C12 + 2 C13 + 2.2 C14
Subject To
 R0: 1.3072e-13 C0 + 2.62558e-12 C1 >= 1e-10
 R1: 1.13707e-11 C3 + 1.24695e-08 C4 + 8.40186e-11 C5 >= 1e-10
 R2: 6.26227e-07 C6 + 1.68756e-09 C7 + 2.28386e-10 C8 >= 1e-10
 R3: 3.09087e-11 C9 + 8.40186e-11 C10 >= 1e-10
 R4: 1.53885e-12 C12 + 2.28386e-10 C13 >= 1e-10
 R5: 18 C0 + 15 C1 + 21 C2 <= 50
 R6: 17 C3 + 10 C4 + 15 C5 <= 50
 R7: 9 C6 + 12 C7 + 14 C8 <= 50
 R8: 16 C9 + 15 C10 + 12 C11 <= 50
 R9: 19 C12 + 14 C13 + 26 C14 <= 50
 R10: 2 C0 + 2 C1 + 2 C2 + 2 C9 <= 5
 R11: 2 C0 + 2 C3 + 2 C4 + 2 C5 + 2 C9 + 2 C10 + 2 C11 <= 5
 R12: 2 C1 + 2 C6 + 2 C7 + 2 C8 <= 5
 R13: 2 C2 + 2 C9 + 2 C10 + 3 C14 <= 5
 R14: 4 C0 + 4 C1 + 4 C2 + 2 C3 + 2 C7 + 2 C10 + 2 C11 + 2 C12 + 2 C14
   <= 5
 R15: 2 C4 + 2 C6 + 2 C8 <= 6
 R16: 2 C7 + 2 C8 + 2 C12 + 2 C13 + 2 C14 <= 6
 R17: 8 C11 + 2 C12 + 2 C14 <= 6
 R18: 2 C9 + 2 C10 + 2 C11 <= 6
 R19: <= 6
 R20: 2 C0 + 2 C1 + 2 C2 + 2 C3 + 2 C13 <= 7
 R21: 2 C13 <= 7
 R22: 2 C3 + 2 C4 + 2 C5 <= 7
 R23: 2 C4 + 2 C5 + 2 C6 + 2 C7 + 2 C8 <= 7
 R24: 2 C5 <= 7
 R25: <= 8
 R26: <= 8
 R27: 2 C12 + 2 C13 + 2 C14 <= 8
 R28: C0 + C1 + C2 >= 1
 R29: C3 + C4 + C5 >= 1
 R30: C6 + C7 + C8 >= 1
 R31: C9 + C10 + C11 >= 1
 R32: C12 + C13 + C14 >= 1
 R33: C0 + C1 + C2 <= 1
 R34: C3 + C4 + C5 <= 1
 R35: C6 + C7 + C8 <= 1
 R36: C9 + C10 + C11 <= 1
 R37: C12 + C13 + C14 <= 1
Bounds
End
